c turning on binary mode checking
c parsing input formula with 259840 variables and 1039924 clauses
c finished parsing, read 24152113 bytes from proof file
c detected empty clause; start verification via backward checking
c 9628 of 1039924 clauses in core                            
c 12649 of 619136 lemmas in core using 116061 resolution steps
c 0 RAT lemmas in core; 904 redundant literals in core lemmas
s VERIFIED
c verification time: 2.694 seconds
